results/res_prop_muc/res_Cimatti_mathsat_cores/QF_UF/SEQ004_size6.smt.smt2.out

real	0m0.177s
user	0m0.115s
sys	0m0.013s
