results/res_prop_muc/res_Cimatti_mathsat_cores/QF_UF/SEQ004_size6.smt.smt2.res
unsat
( _c0
  _c1002
  _c1003
  _c1004
  _c1005
  _c1006
  _c1007
  _c1008
  _c1009
  _c1010
  _c1011
  _c1012
  _c1013
  _c1014
  _c1015
  _c1016
  _c1017
  _c1018
  _c1019
  _c1020
  _c1021
  _c1022
  _c1023
  _c1024
  _c1025
  _c1026
  _c1027
  _c1028
  _c1029
  _c1030
  _c1031
  _c1032
  _c1033
  _c1034
  _c1035
  _c1036
  _c1037
  _c1038
  _c1039
  _c1040
  _c1041
  _c1042
  _c1043
  _c1044
  _c1046
  _c1047
  _c1048
  _c1049
  _c1050
  _c1053
  _c1054
  _c1055
  _c1056
  _c1058
  _c1060
  _c1061
  _c1062
  _c1064
  _c1067
  _c1068
  _c1070
  _c1072
  _c1074
  _c1075
  _c1079
  _c1080
  _c1081
  _c1082
  _c1083
  _c1084
  _c1085
  _c1088
  _c1089
  _c109
  _c1094
  _c1095
  _c1097
  _c1100
  _c1101
  _c1102
  _c1109
  _c1110
  _c1113
  _c1115
  _c1116
  _c1117
  _c1120
  _c1121
  _c1122
  _c1123
  _c1124
  _c1125
  _c1126
  _c1130
  _c1137
  _c1142
  _c1143
  _c1144
  _c1145
  _c1147
  _c1151
  _c1152
  _c1153
  _c1155
  _c1156
  _c1159
  _c116
  _c1162
  _c1163
  _c1164
  _c1165
  _c1166
  _c1167
  _c1172
  _c1173
  _c1174
  _c1175
  _c1178
  _c1179
  _c1180
  _c1182
  _c1183
  _c1185
  _c1187
  _c1188
  _c1191
  _c1194
  _c1201
  _c1204
  _c1205
  _c1206
  _c1207
  _c1208
  _c1211
  _c1212
  _c1215
  _c1218
  _c1222
  _c1223
  _c1225
  _c1229
  _c1236
  _c1243
  _c1245
  _c1246
  _c1247
  _c1248
  _c1249
  _c1250
  _c1251
  _c1252
  _c1253
  _c1254
  _c1256
  _c1257
  _c1258
  _c126
  _c1281
  _c1282
  _c1283
  _c1284
  _c1285
  _c1288
  _c1289
  _c1290
  _c13
  _c1316
  _c1317
  _c1318
  _c1319
  _c132
  _c1320
  _c1321
  _c1322
  _c1323
  _c1324
  _c1325
  _c1326
  _c1327
  _c1328
  _c1329
  _c1330
  _c1331
  _c1332
  _c14
  _c146
  _c147
  _c148
  _c152
  _c170
  _c19
  _c20
  _c207
  _c220
  _c226
  _c227
  _c228
  _c236
  _c25
  _c254
  _c257
  _c26
  _c264
  _c266
  _c277
  _c293
  _c300
  _c304
  _c308
  _c309
  _c31
  _c367
  _c382
  _c402
  _c407
  _c416
  _c433
  _c457
  _c467
  _c500
  _c503
  _c520
  _c523
  _c541
  _c542
  _c543
  _c544
  _c554
  _c559
  _c564
  _c567
  _c588
  _c603
  _c648
  _c651
  _c666
  _c667
  _c668
  _c672
  _c689
  _c695
  _c7
  _c716
  _c748
  _c75
  _c751
  _c76
  _c788
  _c789
  _c790
  _c791
  _c792
  _c795
  _c796
  _c797
  _c825
  _c826
  _c828
  _c830
  _c834
  _c836
  _c837
  _c842
  _c843
  _c846
  _c848
  _c849
  _c850
  _c851
  _c863
  _c869
  _c871
  _c877
  _c879
  _c881
  _c884
  _c886
  _c887
  _c888
  _c889
  _c893
  _c894
  _c900
  _c907
  _c915
  _c917
  _c919
  _c923
  _c924
  _c93
  _c941
  _c945
  _c946
  _c948
  _c954
  _c955
  _c96
  _c961
  _c967
  _c975
  _c976
  _c977
  _c988
  _c991 )
